DATASET = "thpack6";
INSTANCE = "093";

WIDTH = 233;
HEIGHT = 220;
LENGTH = 587;

NO_OF_SHAPES = 15;
size = [|
  78,69,37 |
  115,90,58 |
  68,53,20 |
  119,71,47 |
  100,82,57 |
  88,76,52 |
  95,90,43 |
  87,72,62 |
  80,66,47 |
  120,78,67 |
  103,65,60 |
  86,60,50 |
  80,49,37 |
  94,83,36 |
  92,59,51 |
|];

verticality = [|
  0,1,1 |
  1,1,1 |
  0,0,1 |
  0,1,1 |
  1,1,1 |
  1,1,1 |
  0,0,1 |
  1,1,1 |
  1,1,1 |
  1,1,1 |
  1,1,1 |
  1,1,1 |
  0,1,1 |
  0,0,1 |
  1,1,1 |
|];

box_count = [
  5,
  9,
  5,
  5,
  5,
  7,
  4,
  5,
  5,
  5,
  6,
  9,
  5,
  6,
  5,
];
